========================================================== 
File name: C:\DEGR\assets\definitions\MSRCPSP_Gen\500_10_512_5_B.def
Creation date: Sat May 06 09:15:08 CEST 2023
Website: http://imopse.ii.pwr.edu.pl/ 
Reference: 
Myszkowski P. B., Skowronski M. E., Olech L., Oslizlo K., 
Hybrid Ant Colony Optimization in solving Multi-Skill Resource-Constrained Project Scheduling Problem, 
Soft Computing, DOI: DOI 10.1007/s00500-014-1455-x 
========================================================== 
General characteristics: 
Tasks: 500
Resources: 10
Precedence relations: 510
Number of skill types: 5
========================================================== 
ResourceID 	 Salary 	 Skills 
1	 	 	98.3	 	 Q2: 1 	  Q1: 2 	  Q4: 1 	  Q0: 3 	 
2	 	 	40.7	 	 Q4: 1 	  Q3: 1 	 
3	 	 	88.3	 	 Q3: 1 	 
4	 	 	55.7	 	 Q2: 0 	  Q1: 0 	 
5	 	 	79.4	 	 Q2: 1 	  Q1: 2 	  Q4: 3 	 
6	 	 	75.8	 	 Q1: 1 	  Q0: 2 	  Q2: 0 	 
7	 	 	32.2	 	 Q3: 1 	  Q4: 0 	 
8	 	 	20.6	 	 Q3: 3 	  Q0: 2 	  Q2: 2 	  Q4: 3 	 
9	 	 	44.8	 	 Q1: 0 	  Q3: 1 	  Q4: 2 	  Q0: 2 	 
10	 	 	19.8	 	 Q4: 0 	  Q0: 3 	  Q2: 0 	  Q1: 3 	 
========================================================== 
TaskID 	 Duration 	 Skill 	 Predecessor IDs 
1	37	Q4:	0
2	26	Q1:	3
3	32	Q1:	2
4	25	Q2:	2
5	32	Q1:	1
6	24	Q1:	0
7	13	Q0:	2
8	10	Q1:	3
9	36	Q4:	0
10	32	Q1:	2
11	21	Q1:	2
12	28	Q2:	0
13	17	Q3:	3
14	20	Q4:	3
15	36	Q1:	2
16	36	Q4:	2
17	16	Q3:	1
18	16	Q4:	0
19	12	Q2:	2
20	33	Q4:	1	9
21	16	Q4:	0
22	26	Q2:	0
23	37	Q0:	2	15
24	17	Q4:	1
25	18	Q2:	1
26	28	Q1:	2	20
27	14	Q2:	2
28	29	Q4:	3
29	13	Q4:	0
30	26	Q3:	1	29
31	37	Q4:	2
32	13	Q2:	0
33	35	Q3:	3
34	28	Q2:	0
35	36	Q4:	0
36	16	Q1:	2
37	12	Q4:	0
38	11	Q4:	0	9
39	19	Q0:	2
40	19	Q4:	0
41	12	Q3:	3
42	14	Q4:	0
43	33	Q4:	2
44	25	Q4:	2	36
45	25	Q1:	1
46	32	Q0:	3
47	37	Q4:	2
48	20	Q1:	2
49	22	Q4:	1
50	34	Q2:	1	43
51	11	Q3:	3	33
52	12	Q0:	2
53	37	Q4:	1
54	31	Q2:	1
55	29	Q1:	3
56	15	Q3:	3
57	10	Q2:	0	53
58	11	Q2:	1
59	10	Q3:	3
60	36	Q1:	2
61	29	Q4:	1
62	24	Q4:	0
63	13	Q2:	0
64	22	Q0:	3	21
65	39	Q1:	1
66	27	Q0:	2
67	24	Q4:	2
68	18	Q2:	1
69	18	Q1:	1
70	27	Q3:	1
71	17	Q3:	1
72	23	Q4:	1
73	27	Q3:	1	35	66	1
74	10	Q1:	0
75	10	Q2:	1
76	24	Q0:	2
77	15	Q3:	1
78	34	Q1:	2	77
79	22	Q4:	3
80	34	Q4:	2
81	38	Q4:	2	75
82	40	Q4:	0
83	30	Q1:	2
84	38	Q0:	2	67
85	17	Q1:	1	53
86	34	Q3:	3
87	29	Q2:	1
88	40	Q1:	2
89	28	Q4:	3	14	49
90	32	Q4:	1
91	26	Q4:	3
92	38	Q4:	2
93	28	Q2:	1
94	30	Q3:	3
95	32	Q1:	0
96	32	Q1:	3	67
97	20	Q2:	0
98	37	Q0:	2
99	21	Q2:	0
100	18	Q4:	0	21
101	36	Q3:	1	52
102	31	Q0:	2	20
103	13	Q1:	3
104	19	Q3:	3
105	26	Q1:	2
106	24	Q1:	1	78
107	36	Q2:	2
108	38	Q1:	1
109	10	Q4:	1
110	10	Q4:	0	89	38
111	27	Q1:	0
112	37	Q0:	2
113	24	Q0:	2	103
114	17	Q1:	3
115	19	Q3:	3	38
116	23	Q1:	3
117	13	Q3:	1
118	26	Q0:	2
119	25	Q3:	3	69
120	39	Q4:	3	13
121	21	Q2:	1	74
122	19	Q1:	1
123	26	Q4:	1
124	26	Q3:	1
125	20	Q1:	3
126	11	Q4:	2	15
127	31	Q1:	1
128	36	Q4:	2	68	119	10
129	37	Q4:	3	109
130	20	Q1:	1	102	35
131	39	Q4:	1	87
132	9	Q4:	1
133	12	Q4:	2
134	10	Q4:	1
135	36	Q1:	0
136	20	Q4:	0
137	31	Q2:	2	13
138	36	Q4:	0	91
139	17	Q4:	2
140	13	Q4:	2
141	29	Q4:	1	5	39
142	9	Q3:	3	44
143	13	Q4:	1
144	11	Q4:	1	23	63	28
145	14	Q3:	1
146	28	Q3:	3	22
147	35	Q3:	1
148	32	Q3:	1
149	25	Q1:	3
150	30	Q4:	0
151	21	Q1:	1
152	14	Q4:	2	41	137
153	18	Q3:	3	99
154	24	Q2:	0	69
155	21	Q2:	0
156	36	Q4:	2
157	24	Q1:	1
158	22	Q3:	3	145
159	34	Q4:	0	69	138
160	28	Q0:	2	153
161	26	Q1:	2
162	24	Q1:	0
163	14	Q1:	2
164	20	Q1:	3	39
165	31	Q4:	0	9
166	22	Q4:	2
167	38	Q1:	1
168	39	Q4:	0	21
169	38	Q3:	3
170	18	Q4:	0	81
171	16	Q4:	2
172	19	Q1:	1	127
173	38	Q3:	3	149	96
174	34	Q2:	2	165	126
175	15	Q4:	2
176	17	Q1:	3	6	115
177	30	Q1:	3
178	40	Q1:	1	139
179	26	Q2:	1	56	16
180	21	Q1:	2	159
181	20	Q4:	3
182	24	Q1:	0
183	34	Q1:	3	151
184	10	Q0:	3	32
185	33	Q0:	3	88
186	24	Q3:	3
187	27	Q1:	3
188	26	Q4:	3
189	17	Q4:	2	82
190	33	Q1:	2	134
191	9	Q0:	2
192	31	Q4:	3
193	16	Q4:	0	107
194	13	Q2:	2	159
195	12	Q4:	2	130	44	43
196	31	Q0:	3
197	23	Q4:	0	120
198	25	Q2:	2
199	31	Q4:	3	2
200	17	Q1:	3	109	17	140
201	27	Q2:	2
202	20	Q4:	1
203	36	Q1:	0
204	11	Q4:	1	184
205	23	Q1:	1
206	30	Q2:	0	80
207	32	Q1:	0
208	31	Q1:	3
209	13	Q1:	3
210	12	Q0:	3	62	169
211	36	Q4:	2
212	20	Q1:	1	199
213	32	Q4:	0
214	29	Q4:	3	112	53	25
215	9	Q3:	3
216	20	Q3:	1	211	202
217	11	Q4:	0	175
218	37	Q2:	2	23	7
219	40	Q1:	3
220	23	Q2:	2
221	18	Q4:	2
222	24	Q1:	2	208
223	29	Q1:	3
224	30	Q1:	0
225	20	Q4:	3	47
226	21	Q1:	2
227	23	Q1:	0
228	22	Q2:	0	23	182	130	71
229	31	Q1:	3	206	69
230	40	Q4:	0	196	185
231	35	Q2:	2	198
232	23	Q2:	2	66
233	34	Q1:	0	52
234	39	Q2:	2
235	21	Q2:	0
236	36	Q4:	0	210	47
237	17	Q2:	1	2	192
238	17	Q2:	0	73
239	30	Q4:	0
240	11	Q0:	3	205	1
241	15	Q3:	1	42	102
242	26	Q1:	2
243	10	Q4:	0	55
244	24	Q1:	1
245	9	Q2:	1	178	160	158
246	16	Q0:	2	144	75
247	28	Q4:	3	187
248	21	Q4:	3	60
249	9	Q1:	0	121
250	36	Q4:	2
251	11	Q1:	0	137
252	14	Q2:	0	35
253	16	Q2:	1	208	71
254	14	Q2:	2	151	152	101
255	13	Q4:	3	124	92
256	15	Q2:	2
257	17	Q2:	0	78
258	36	Q1:	1
259	26	Q1:	2	82
260	30	Q4:	0
261	24	Q0:	2
262	24	Q3:	1	185	37
263	31	Q1:	2
264	36	Q0:	3	54
265	20	Q2:	1	262
266	32	Q2:	2	60
267	30	Q4:	3	186
268	40	Q1:	1	136
269	32	Q1:	2	39	1
270	30	Q2:	2	212
271	14	Q4:	1
272	39	Q1:	0	265	58
273	12	Q1:	0
274	39	Q1:	1
275	16	Q4:	1
276	18	Q3:	1	218
277	21	Q3:	1	121	152
278	12	Q2:	2	73
279	15	Q4:	0	68
280	23	Q1:	0	182
281	25	Q1:	0	226
282	19	Q4:	2
283	26	Q1:	1	54	173
284	16	Q1:	3
285	9	Q4:	0	196	102	60	71
286	20	Q1:	2
287	27	Q2:	1	36
288	30	Q1:	2
289	20	Q2:	2	113	19	128	193
290	39	Q4:	2	189
291	22	Q2:	0	73
292	27	Q3:	3
293	19	Q2:	1
294	14	Q4:	3
295	31	Q3:	1	287	7
296	29	Q3:	1	227
297	22	Q0:	2	287	103
298	22	Q0:	3	15
299	39	Q2:	1	293
300	31	Q4:	0	260	292	274
301	36	Q0:	2	290
302	11	Q1:	1	20
303	39	Q0:	2	273
304	21	Q2:	1	226
305	21	Q3:	3
306	30	Q4:	3	104	299	57
307	30	Q4:	1	265
308	22	Q2:	1	105
309	30	Q4:	1	57	273
310	24	Q4:	2	111	118	289
311	28	Q3:	1	154	309
312	26	Q3:	3	300
313	33	Q1:	1	24	311
314	31	Q0:	3	221
315	13	Q4:	1
316	14	Q4:	3
317	9	Q2:	1
318	34	Q1:	0	287
319	19	Q3:	1	153	280	256
320	34	Q2:	2	172
321	35	Q1:	1	319
322	27	Q3:	1	111
323	13	Q1:	2
324	18	Q2:	0	179
325	13	Q3:	3	170
326	22	Q1:	2	101
327	12	Q2:	0
328	30	Q4:	2	286
329	35	Q4:	2	314
330	25	Q2:	1
331	32	Q2:	1	189	165
332	23	Q0:	2	189
333	28	Q4:	0	231	209	79	20
334	22	Q1:	1	259	78
335	15	Q4:	3	174
336	35	Q2:	2	17	129
337	21	Q2:	1
338	22	Q1:	0
339	15	Q2:	0
340	35	Q2:	2	89	158
341	19	Q4:	0	114
342	28	Q2:	1	31	177	176
343	38	Q3:	1
344	21	Q1:	1
345	29	Q4:	3
346	30	Q4:	3	255
347	31	Q4:	1	61	337	272
348	9	Q1:	2	18
349	35	Q2:	2	99
350	26	Q3:	1	92
351	35	Q4:	2
352	35	Q2:	1
353	25	Q0:	2	297	14
354	10	Q4:	1	122	148	331
355	25	Q2:	0
356	33	Q2:	0	177	199
357	18	Q4:	0
358	34	Q4:	3	199
359	28	Q2:	2
360	24	Q4:	3	276	112	309
361	26	Q2:	2	268	100	314
362	21	Q4:	1	185	279	316
363	40	Q1:	2	173	102
364	28	Q1:	1
365	35	Q4:	1
366	20	Q4:	1	342
367	20	Q0:	2	257	175	199
368	19	Q3:	1	65	106
369	23	Q3:	3	225
370	22	Q1:	1	162	261	232
371	12	Q2:	2
372	28	Q0:	2	305	180
373	34	Q4:	0	191	235
374	10	Q3:	3	67	12
375	20	Q1:	0	79	16	164
376	23	Q2:	2
377	11	Q2:	1
378	18	Q1:	2
379	24	Q4:	0	109
380	16	Q1:	3	337
381	40	Q0:	3	6	284
382	11	Q1:	1	184	320
383	31	Q4:	1
384	29	Q0:	2
385	10	Q1:	1	265	96	114	8
386	16	Q1:	1	352	59	248	168
387	9	Q1:	0
388	23	Q0:	3
389	11	Q1:	1	262
390	11	Q3:	3	124	29
391	38	Q3:	3	388	208
392	31	Q1:	2	363	352	346	51
393	16	Q2:	2	293	235
394	21	Q3:	3	175
395	30	Q1:	0	295
396	19	Q3:	3	166	388	25	35
397	10	Q4:	2	171	262	311	82
398	32	Q2:	2
399	25	Q1:	0	201
400	34	Q4:	1	127	208
401	11	Q1:	0	287
402	27	Q4:	1	326
403	10	Q0:	2	235
404	34	Q0:	3
405	38	Q1:	3	46	67	96	61	221
406	33	Q2:	0
407	31	Q1:	0	253	76	313
408	30	Q1:	2
409	9	Q4:	1	270	296
410	20	Q1:	0	250	57	99
411	32	Q1:	3
412	21	Q1:	0	80	5
413	10	Q0:	2	195
414	27	Q4:	3	34	221
415	11	Q3:	1	400	279	207	378
416	22	Q4:	1	32	167	24	27	156
417	14	Q2:	0	216
418	10	Q3:	3	297	189
419	35	Q1:	1	222
420	18	Q1:	0	137	97
421	19	Q1:	2	103	308	71
422	37	Q1:	3	202
423	35	Q3:	1	118	332	379
424	29	Q1:	3	358	69
425	20	Q1:	1
426	22	Q1:	2	370	115	139	186
427	18	Q3:	1	368
428	27	Q4:	1	324	407
429	32	Q4:	3
430	33	Q2:	1	302
431	35	Q0:	3	213
432	34	Q0:	3	169	333	155	101	7	153	45
433	21	Q4:	0	424
434	12	Q2:	0	68
435	17	Q4:	3	255	282
436	29	Q2:	0	404	16
437	32	Q4:	3	75	96
438	38	Q1:	3	365	432
439	30	Q0:	3	56	183
440	37	Q0:	3	411	344	174
441	21	Q0:	2	241
442	40	Q4:	0	159	293
443	27	Q4:	2
444	31	Q0:	3	388	223	294
445	40	Q2:	1	157	194
446	29	Q4:	3	16	35	112
447	17	Q4:	0
448	16	Q1:	2	307
449	20	Q3:	3	344
450	39	Q4:	2
451	16	Q4:	1	258	243	14	73	282
452	15	Q3:	1
453	21	Q3:	1	321
454	17	Q4:	2	295	394	388
455	16	Q0:	2	288	24	428
456	10	Q4:	0	205	229
457	14	Q4:	3	65	412
458	26	Q4:	2	159	174	264
459	11	Q4:	1	415	54
460	26	Q0:	3	324	195	132
461	34	Q1:	3	266
462	12	Q4:	1	208	57	171	254
463	17	Q1:	0	380	17	343
464	19	Q4:	2	48	196	419
465	39	Q4:	3	125	24
466	19	Q2:	1	142	51	261	33
467	19	Q2:	1	334
468	40	Q1:	3	225
469	27	Q4:	2	389	189
470	24	Q4:	3	184	444
471	39	Q4:	2	40
472	9	Q2:	1	344	99
473	23	Q1:	2	213
474	23	Q2:	2	339	430
475	40	Q3:	3	362	15
476	18	Q3:	3	345	199
477	35	Q0:	2	354	16	89
478	11	Q4:	3	437
479	29	Q1:	2	200	432
480	19	Q3:	3	185	88	264	173
481	32	Q1:	3	125
482	10	Q4:	1	258
483	19	Q2:	2
484	21	Q1:	2	119
485	13	Q0:	3	77	191
486	31	Q4:	0
487	26	Q2:	0	454	366
488	15	Q4:	3	36	140	270	86
489	18	Q4:	3	76	342	159
490	9	Q1:	2	226	194
491	37	Q1:	3	369	260	299
492	18	Q4:	1	29	8	465	334
493	15	Q2:	0	252	260	150
494	29	Q0:	3	448
495	24	Q2:	1	227	345
496	40	Q1:	2
497	32	Q3:	1	184	144	38
498	27	Q3:	3	457	275
499	27	Q4:	1	221
500	40	Q4:	1	354	426	16
========================================================== 